\ LP format - for model browsing. Use MPS format to capture full model detail.
Maximize
  1.859491e+06 lambda_0_5 + 2.19249075e+06 lambda_1_6
   + 2.073358875e+06 lambda_2_7 + 2.073049e+06 lambda_3_8
   + 1.66441225e+06 lambda_0_9 + 2.10526875e+06 lambda_1_10
   + 1.998054375e+06 lambda_2_11 + 1.997444125e+06 lambda_3_12
   + 1.537083125e+06 lambda_0_13 + 1.743072375e+06 lambda_1_14
   + 1.7160735e+06 lambda_2_15 + 1.726941125e+06 lambda_3_16
   + 1.45715825e+06 lambda_0_17 + 1.880851e+06 lambda_1_18
   + 1.6765655e+06 lambda_2_19 + 1.8813395e+06 lambda_3_20
   + 1.78917125e+06 lambda_0_21 + 2.122572e+06 lambda_1_22
   + 1.8748405e+06 lambda_2_23 + 1.88232275e+06 lambda_3_24
   + 1.39244125e+06 lambda_0_25 + 1.612812e+06 lambda_1_26
   + 1.61152275e+06 lambda_2_27 + 1.61091225e+06 lambda_3_28
   + 871059.625 lambda_0_29 + 1.31437575e+06 lambda_1_30
   + 1.312953e+06 lambda_2_31 + 1.3123425e+06 lambda_3_32
   + 1.40534925e+06 lambda_0_33 + 1.406015625e+06 lambda_1_34
   + 1.40673525e+06 lambda_2_35 + 1.4048975e+06 lambda_3_36
   + 1.222223e+06 lambda_0_37 + 1.42286175e+06 lambda_1_38
   + 1.22101325e+06 lambda_2_39 + 1.42335025e+06 lambda_3_40
   + 1.354113625e+06 lambda_0_41 + 1.352285625e+06 lambda_1_42
   + 1.354989125e+06 lambda_2_43 + 1.557726625e+06 lambda_3_44
   + 1.12513175e+06 lambda_0_45 + 1.328356625e+06 lambda_1_46
   + 1.12600725e+06 lambda_2_47 + 1.328845125e+06 lambda_3_48
   + 1.22104725e+06 lambda_0_49 + 1.54289925e+06 lambda_1_50
   + 1.5414765e+06 lambda_2_51 + 1.540866e+06 lambda_3_52
   + 1.488505625e+06 lambda_0_53 + 1.931499375e+06 lambda_1_54
   + 1.489381125e+06 lambda_2_55 + 1.375016125e+06 lambda_3_56
   + 1.33069975e+06 lambda_0_57 + 1.106719125e+06 lambda_1_58
   + 1.33157525e+06 lambda_2_59 + 1.107832e+06 lambda_3_60
   + 1.0470335e+06 lambda_0_61 + 1.3668535e+06 lambda_1_62
   + 1.04582375e+06 lambda_2_63 + 1.367966375e+06 lambda_3_64
   + 737178.1875 lambda_0_65 + 1.24893325e+06 lambda_1_66
   + 1.139980625e+06 lambda_2_67 + 1.139670875e+06 lambda_3_68
   + 1.327056875e+06 lambda_0_69 + 1.43200075e+06 lambda_1_70
   + 1.453451875e+06 lambda_2_71 + 1.452841375e+06 lambda_3_72
   + 1.42139325e+06 lambda_0_73 + 1.676930125e+06 lambda_1_74
   + 1.42277925e+06 lambda_2_75 + 1.420941625e+06 lambda_3_76
   + 1.39751e+06 lambda_0_77 + 1.603499125e+06 lambda_1_78
   + 1.398896e+06 lambda_2_79 + 1.39705825e+06 lambda_3_80
   + 1.342519625e+06 lambda_0_81 + 1.343186e+06 lambda_1_82
   + 1.3439055e+06 lambda_2_83 + 1.342067875e+06 lambda_3_84
   + 1.4860055e+06 lambda_0_85 + 1.966564625e+06 lambda_1_86
   + 1.4873915e+06 lambda_2_87 + 1.72660275e+06 lambda_3_88
   + 1.059465875e+06 lambda_0_89 + 1.473405625e+06 lambda_1_90
   + 1.567998875e+06 lambda_2_91 + 1.265625625e+06 lambda_3_92
   + 1.77374675e+06 lambda_1_93 + 1.730192875e+06 lambda_2_94
   + 1.729883e+06 lambda_3_95 + 1.587914375e+06 lambda_0_96
   + 1.60049e+06 lambda_1_97 + 1.589300375e+06 lambda_2_98
   + 1.600825e+06 lambda_3_99 + 756321.5 lambda_0_100
   + 1.1981145e+06 lambda_1_101 + 756365.125 lambda_2_102
   + 959202.75 lambda_3_103 + 991081.6875 lambda_0_104
   + 1.37394925e+06 lambda_1_105 + 991125.3125 lambda_2_106
   + 1.374417625e+06 lambda_3_107 + 1.69199475e+06 lambda_1_108
   + 1.485553875e+06 lambda_3_109 + 1.450844875e+06 lambda_0_110
   + 1.5768835e+06 lambda_1_111 + 1.449635125e+06 lambda_2_112
   + 1.3395195e+06 lambda_3_113 + 929101.0625 lambda_0_114
   + 1.568807e+06 lambda_1_115 + 929144.75 lambda_2_116
   + 1.13839225e+06 lambda_0_117 + 2.011001875e+06 lambda_1_118
   + 1.8603665e+06 lambda_2_119 + 1.4795225e+06 lambda_3_120
   + 1.54817475e+06 lambda_1_121 + 1.79004675e+06 lambda_2_122
   + 1.54850975e+06 lambda_3_123 + 1.42671875e+06 lambda_1_124
   + 1.22243325e+06 lambda_2_125 + 1.27947075e+06 lambda_3_126
   + 1.599654875e+06 lambda_1_127 + 1.42720725e+06 lambda_3_128
Subject To
 oneVisitCon0: lambda_0_1 + lambda_0_5 + lambda_0_9 + lambda_0_13
   + lambda_0_17 + lambda_0_21 + lambda_0_25 + lambda_0_29 + lambda_0_33
   + lambda_0_37 + lambda_0_41 + lambda_0_45 + lambda_0_49 + lambda_0_53
   + lambda_0_57 + lambda_0_61 + lambda_0_65 + lambda_0_69 + lambda_0_73
   + lambda_0_77 + lambda_0_81 + lambda_0_85 + lambda_0_89 + lambda_0_96
   + lambda_0_100 + lambda_0_104 + lambda_0_110 + lambda_0_114
   + lambda_0_117 = 1
 oneVisitCon1: lambda_1_2 + lambda_1_6 + lambda_1_10 + lambda_1_14
   + lambda_1_18 + lambda_1_22 + lambda_1_26 + lambda_1_30 + lambda_1_34
   + lambda_1_38 + lambda_1_42 + lambda_1_46 + lambda_1_50 + lambda_1_54
   + lambda_1_58 + lambda_1_62 + lambda_1_66 + lambda_1_70 + lambda_1_74
   + lambda_1_78 + lambda_1_82 + lambda_1_86 + lambda_1_90 + lambda_1_93
   + lambda_1_97 + lambda_1_101 + lambda_1_105 + lambda_1_108
   + lambda_1_111 + lambda_1_115 + lambda_1_118 + lambda_1_121
   + lambda_1_124 + lambda_1_127 = 1
 oneVisitCon2: lambda_2_3 + lambda_2_7 + lambda_2_11 + lambda_2_15
   + lambda_2_19 + lambda_2_23 + lambda_2_27 + lambda_2_31 + lambda_2_35
   + lambda_2_39 + lambda_2_43 + lambda_2_47 + lambda_2_51 + lambda_2_55
   + lambda_2_59 + lambda_2_63 + lambda_2_67 + lambda_2_71 + lambda_2_75
   + lambda_2_79 + lambda_2_83 + lambda_2_87 + lambda_2_91 + lambda_2_94
   + lambda_2_98 + lambda_2_102 + lambda_2_106 + lambda_2_112
   + lambda_2_116 + lambda_2_119 + lambda_2_122 + lambda_2_125 = 1
 oneVisitCon3: lambda_3_4 + lambda_3_8 + lambda_3_12 + lambda_3_16
   + lambda_3_20 + lambda_3_24 + lambda_3_28 + lambda_3_32 + lambda_3_36
   + lambda_3_40 + lambda_3_44 + lambda_3_48 + lambda_3_52 + lambda_3_56
   + lambda_3_60 + lambda_3_64 + lambda_3_68 + lambda_3_72 + lambda_3_76
   + lambda_3_80 + lambda_3_84 + lambda_3_88 + lambda_3_92 + lambda_3_95
   + lambda_3_99 + lambda_3_103 + lambda_3_107 + lambda_3_109
   + lambda_3_113 + lambda_3_120 + lambda_3_123 + lambda_3_126
   + lambda_3_128 = 1
 visitedPickupCon0: lambda_0_13 + lambda_1_14 + lambda_2_15 + lambda_3_16
   + lambda_0_37 + lambda_1_38 + lambda_2_39 + lambda_3_40 + lambda_0_41
   + lambda_1_42 + lambda_2_43 + lambda_3_44 + lambda_1_62 + lambda_3_64
   + lambda_0_65 + lambda_1_66 + lambda_2_67 + lambda_3_68 + lambda_0_85
   + lambda_2_87 + lambda_0_89 + lambda_1_90 + lambda_3_92 + lambda_1_108
   + lambda_3_109 + lambda_0_110 + lambda_2_112 <= 1
 visitedPickupCon1: lambda_1_6 + lambda_2_7 + lambda_3_8 + lambda_1_10
   + lambda_2_11 + lambda_3_12 + lambda_1_22 + lambda_2_23 + lambda_1_26
   + lambda_2_27 + lambda_3_28 + lambda_1_30 + lambda_2_31 + lambda_3_32
   + lambda_1_50 + lambda_2_51 + lambda_3_52 + lambda_1_54 + lambda_1_66
   + lambda_2_67 + lambda_3_68 + lambda_1_70 + lambda_2_71 + lambda_3_72
   + lambda_1_74 + lambda_1_86 + lambda_1_90 + lambda_2_91 + lambda_1_93
   + lambda_2_94 + lambda_3_95 + lambda_1_101 + lambda_1_111 + lambda_1_115
   + lambda_1_118 + lambda_1_127 <= 1
 visitedPickupCon2: lambda_0_29 + lambda_0_45 + lambda_1_46 + lambda_2_47
   + lambda_3_48 + lambda_0_49 + lambda_0_57 + lambda_2_59 + lambda_0_65
   + lambda_2_67 + lambda_3_68 + lambda_0_69 + lambda_0_73 + lambda_2_75
   + lambda_3_76 + lambda_0_81 + lambda_1_82 + lambda_2_83 + lambda_3_84
   + lambda_0_89 + lambda_2_91 + lambda_3_92 + lambda_1_93 + lambda_0_96
   + lambda_1_97 + lambda_2_98 + lambda_3_99 + lambda_1_105 + lambda_3_107
   + lambda_0_114 + lambda_1_115 + lambda_2_116 + lambda_3_120
   + lambda_1_121 + lambda_3_123 + lambda_1_124 + lambda_2_125
   + lambda_1_127 + lambda_3_128 <= 1
 visitedPickupCon3: lambda_0_5 + lambda_1_6 + lambda_0_9 + lambda_1_10
   + lambda_2_11 + lambda_3_12 + lambda_1_18 + lambda_2_19 + lambda_3_20
   + lambda_0_21 + lambda_1_22 + lambda_3_24 + lambda_0_33 + lambda_1_34
   + lambda_2_35 + lambda_3_36 + lambda_0_77 + lambda_1_78 + lambda_2_79
   + lambda_3_80 + lambda_2_94 + lambda_3_95 + lambda_0_96 + lambda_1_97
   + lambda_2_98 + lambda_3_99 + lambda_1_111 + lambda_3_113 + lambda_0_117
   + lambda_1_118 + lambda_2_119 + lambda_3_120 + lambda_2_122
   + lambda_3_126 <= 1
 visitedPickupCon4: lambda_0_37 + lambda_1_38 + lambda_2_39 + lambda_3_40
   + lambda_0_61 + lambda_2_63 + lambda_0_65 + lambda_1_66 + lambda_1_70
   + lambda_0_110 + lambda_1_111 + lambda_2_112 + lambda_3_113
   + lambda_0_117 <= 1
 visitedPickupCon5: lambda_1_30 + lambda_2_31 + lambda_3_32 + lambda_0_61
   + lambda_2_63 + lambda_0_69 + lambda_1_70 + lambda_0_73 + lambda_1_74
   + lambda_2_75 + lambda_3_76 + lambda_1_86 + lambda_3_88 + lambda_0_100
   + lambda_1_101 + lambda_2_102 + lambda_3_103 <= 1
 visitedPickupCon6: lambda_2_23 + lambda_0_25 + lambda_0_49 + lambda_1_50
   + lambda_2_51 + lambda_3_52 + lambda_0_57 + lambda_2_59 + lambda_0_81
   + lambda_1_82 + lambda_2_83 + lambda_3_84 + lambda_1_93 + lambda_1_121
   + lambda_3_123 + lambda_1_124 + lambda_2_125 + lambda_3_128 <= 1
 visitedPickupCon7: lambda_0_5 + lambda_1_6 + lambda_2_7 + lambda_3_8
   + lambda_1_18 + lambda_2_19 + lambda_3_20 + lambda_0_21 + lambda_1_22
   + lambda_3_24 + lambda_0_33 + lambda_1_34 + lambda_2_35 + lambda_3_36
   + lambda_0_53 + lambda_1_54 + lambda_2_55 + lambda_3_56 + lambda_1_66
   + lambda_0_69 + lambda_0_73 + lambda_1_74 + lambda_2_75 + lambda_3_76
   + lambda_2_94 + lambda_3_95 + lambda_0_96 + lambda_2_98 + lambda_2_119
   + lambda_2_122 <= 1
 visitedPickupCon8: lambda_1_14 + lambda_3_16 + lambda_1_18 + lambda_3_20
   + lambda_3_24 + lambda_1_38 + lambda_3_40 + lambda_3_44 + lambda_1_46
   + lambda_3_48 + lambda_1_78 + lambda_3_88 + lambda_3_92 + lambda_1_97
   + lambda_3_99 + lambda_3_103 + lambda_1_105 + lambda_3_107
   + lambda_1_108 + lambda_3_113 + lambda_3_120 + lambda_1_121
   + lambda_3_123 + lambda_1_124 + lambda_3_128 <= 1
 visitedPickupCon9: lambda_0_13 + lambda_1_14 + lambda_2_15 + lambda_0_17
   + lambda_1_58 + lambda_3_60 + lambda_1_62 + lambda_3_64 + lambda_0_77
   + lambda_1_78 + lambda_2_79 + lambda_3_80 + lambda_0_85 + lambda_2_87
   + lambda_1_108 + lambda_3_109 + lambda_3_126 <= 1
 visitedPickupCon10: lambda_0_13 + lambda_1_14 + lambda_3_16 + lambda_1_26
   + lambda_2_27 + lambda_3_28 + lambda_0_45 + lambda_1_46 + lambda_2_47
   + lambda_3_48 + lambda_2_71 + lambda_3_72 + lambda_2_91 + lambda_0_104
   + lambda_1_105 + lambda_2_106 + lambda_3_107 + lambda_0_114
   + lambda_1_115 + lambda_2_116 + lambda_1_127 <= 1
 visitedPickupCon11: lambda_0_89 + lambda_1_90 + lambda_3_92 + lambda_0_100
   + lambda_1_101 + lambda_2_102 + lambda_3_103 + lambda_1_118 <= 1
 visitedPickupCon12: lambda_0_33 + lambda_1_34 + lambda_2_35 + lambda_3_36
   + lambda_0_37 + lambda_1_38 + lambda_2_39 + lambda_3_40 + lambda_0_65
   + lambda_1_66 + lambda_2_67 + lambda_3_68 + lambda_1_70 + lambda_1_74
   + lambda_2_94 + lambda_3_95 + lambda_0_110 + lambda_1_111 + lambda_2_112
   + lambda_3_113 + lambda_0_117 <= 1
 visitedPickupCon13: lambda_0_5 + lambda_0_9 + lambda_1_10 + lambda_1_18
   + lambda_2_19 + lambda_3_20 + lambda_0_21 + lambda_0_33 + lambda_1_34
   + lambda_2_35 + lambda_3_36 + lambda_0_53 + lambda_1_54 + lambda_2_55
   + lambda_3_56 + lambda_0_61 + lambda_2_63 + lambda_1_70 + lambda_0_77
   + lambda_1_78 + lambda_2_79 + lambda_3_80 + lambda_2_94 + lambda_3_95
   + lambda_1_111 + lambda_3_113 + lambda_0_117 + lambda_2_119
   + lambda_2_122 + lambda_3_126 <= 1
 visitedPickupCon14: lambda_0_5 + lambda_1_6 + lambda_2_7 + lambda_3_8
   + lambda_0_9 + lambda_1_10 + lambda_2_11 + lambda_3_12 + lambda_0_21
   + lambda_1_22 + lambda_2_23 + lambda_3_24 + lambda_0_41 + lambda_1_42
   + lambda_2_43 + lambda_3_44 + lambda_0_45 + lambda_1_46 + lambda_2_47
   + lambda_3_48 + lambda_0_53 + lambda_1_54 + lambda_2_55 + lambda_0_57
   + lambda_2_59 + lambda_1_86 + lambda_3_88 + lambda_2_91 + lambda_1_93
   + lambda_1_115 + lambda_1_118 + lambda_2_119 + lambda_2_122
   + lambda_1_127 <= 1
 visitedPickupCon15: lambda_1_6 + lambda_2_7 + lambda_3_8 + lambda_2_11
   + lambda_3_12 + lambda_1_22 + lambda_2_23 + lambda_3_24 + lambda_1_26
   + lambda_2_27 + lambda_3_28 + lambda_1_30 + lambda_2_31 + lambda_3_32
   + lambda_0_41 + lambda_1_42 + lambda_2_43 + lambda_3_44 + lambda_0_49
   + lambda_1_50 + lambda_2_51 + lambda_3_52 + lambda_0_57 + lambda_2_59
   + lambda_0_69 + lambda_2_71 + lambda_3_72 + lambda_0_81 + lambda_1_82
   + lambda_2_83 + lambda_3_84 + lambda_1_86 + lambda_3_88 + lambda_1_93
   + lambda_0_96 + lambda_1_97 + lambda_2_98 + lambda_3_99 + lambda_1_105
   + lambda_3_107 + lambda_1_118 + lambda_3_120 + lambda_1_121
   + lambda_3_123 + lambda_1_124 + lambda_2_125 + lambda_1_127
   + lambda_3_128 <= 1
 visitedPickupCon16: lambda_2_7 + lambda_3_8 + lambda_0_29 + lambda_1_30
   + lambda_2_31 + lambda_3_32 + lambda_0_37 + lambda_1_38 + lambda_2_39
   + lambda_3_40 + lambda_0_45 + lambda_1_46 + lambda_2_47 + lambda_3_48
   + lambda_1_58 + lambda_3_60 + lambda_0_61 + lambda_1_62 + lambda_2_63
   + lambda_3_64 + lambda_0_73 + lambda_1_74 + lambda_2_75 + lambda_3_76
   + lambda_0_85 + lambda_1_86 + lambda_2_87 + lambda_3_88 + lambda_0_89
   + lambda_1_90 + lambda_2_91 + lambda_3_92 + lambda_0_104 + lambda_2_106
   + lambda_1_108 + lambda_3_109 + lambda_1_115 <= 1
 visitedPickupCon17: lambda_0_29 + lambda_0_41 + lambda_1_42 + lambda_2_43
   + lambda_3_44 + lambda_0_45 + lambda_1_46 + lambda_2_47 + lambda_3_48
   + lambda_0_65 + lambda_1_66 + lambda_2_67 + lambda_3_68 + lambda_2_71
   + lambda_3_72 + lambda_0_89 + lambda_1_90 + lambda_2_91 + lambda_3_92
   + lambda_0_100 + lambda_1_101 + lambda_2_102 + lambda_3_103
   + lambda_0_104 + lambda_1_105 + lambda_2_106 + lambda_3_107
   + lambda_0_114 + lambda_1_115 + lambda_2_116 + lambda_1_127 <= 1
 visitedPickupCon18: lambda_0_5 + lambda_1_6 + lambda_2_7 + lambda_3_8
   + lambda_0_9 + lambda_1_10 + lambda_2_11 + lambda_3_12 + lambda_3_16
   + lambda_1_18 + lambda_2_19 + lambda_3_20 + lambda_0_41 + lambda_1_42
   + lambda_2_43 + lambda_3_44 + lambda_0_49 + lambda_1_50 + lambda_2_51
   + lambda_3_52 + lambda_3_56 + lambda_0_69 + lambda_0_73 + lambda_2_75
   + lambda_3_76 + lambda_0_81 + lambda_1_82 + lambda_2_83 + lambda_3_84
   + lambda_0_89 + lambda_3_92 + lambda_0_96 + lambda_1_97 + lambda_2_98
   + lambda_3_99 + lambda_1_105 + lambda_3_107 + lambda_1_118
   + lambda_2_119 + lambda_3_120 + lambda_1_121 + lambda_3_123
   + lambda_1_124 + lambda_2_125 + lambda_3_128 <= 1
 visitedPickupCon19: lambda_0_13 + lambda_1_14 + lambda_2_15 + lambda_3_16
   + lambda_0_17 + lambda_0_37 + lambda_1_38 + lambda_2_39 + lambda_3_40
   + lambda_1_58 + lambda_3_60 + lambda_1_62 + lambda_3_64 + lambda_0_85
   + lambda_2_87 + lambda_1_108 + lambda_3_109 + lambda_0_110
   + lambda_2_112 <= 1
 visitedPickupCon20: lambda_1_18 + lambda_2_19 + lambda_3_20 + lambda_0_21
   + lambda_1_22 + lambda_2_23 + lambda_3_24 + lambda_0_53 + lambda_1_54
   + lambda_2_55 + lambda_3_56 + lambda_1_74 + lambda_1_86 + lambda_3_88
   + lambda_2_122 <= 1
 visitedPickupCon21: lambda_2_7 + lambda_3_8 + lambda_2_15 + lambda_0_17
   + lambda_0_25 + lambda_1_26 + lambda_2_27 + lambda_3_28 + lambda_0_53
   + lambda_1_54 + lambda_2_55 + lambda_3_56 + lambda_0_61 + lambda_2_63
   + lambda_0_69 + lambda_1_70 + lambda_0_73 + lambda_1_74 + lambda_2_75
   + lambda_3_76 + lambda_1_86 + lambda_3_88 + lambda_0_110 + lambda_2_112
   <= 1
 visitedPickupCon22: lambda_0_13 + lambda_1_14 + lambda_2_15 + lambda_3_16
   + lambda_0_17 + lambda_0_33 + lambda_1_34 + lambda_2_35 + lambda_3_36
   + lambda_0_73 + lambda_2_75 + lambda_3_76 + lambda_0_77 + lambda_1_78
   + lambda_2_79 + lambda_3_80 + lambda_0_81 + lambda_1_82 + lambda_2_83
   + lambda_3_84 + lambda_0_85 + lambda_2_87 + lambda_0_96 + lambda_1_97
   + lambda_2_98 + lambda_3_99 + lambda_1_105 + lambda_3_107 + lambda_1_108
   + lambda_3_109 + lambda_1_121 + lambda_3_123 <= 1
 visitedPickupCon23: lambda_0_25 + lambda_1_26 + lambda_2_27 + lambda_3_28
   + lambda_0_29 + lambda_1_30 + lambda_2_31 + lambda_3_32 + lambda_2_71
   + lambda_3_72 + lambda_1_90 + lambda_0_100 + lambda_1_101 + lambda_2_102
   + lambda_3_103 + lambda_0_104 + lambda_2_106 + lambda_0_114
   + lambda_2_116 <= 1
 visitedPickupCon24: <= 1
Bounds
End
